00
00
00
00
00
00
00
00
00
00
00
00
00
00
00
00
00
00
00
00
00
00
00
00
00
00
00
00
00
00
00
00
00
00
00
00
00
00
00
00
00
00
00
00
00
00
00
00
00
00
00
00
00
00
00
00
00
00
00
00
00
00
00
00
00
00
00
00
00
00
00
00
00
00
00
00
00
00
00
00
00
00
00
00
00
00
00
00
00
00
00
00
00
00
00
00
00
00
00
00
00
00
00
00
00
00
00
00
00
00
00
00
00
00
00
00
00
00
00
00
00
00
00
00
00
00
00
00
00
00
00
00
00
00
00
00
00
00
00
00
00
00
00
00
00
00
00
00
00
00
00
00
00
00
00
00
00
00
00
00
00
00
00
00
00
00
00
00
00
00
00
00
00
00
00
00
00
00
00
00
00
00
00
00
00
00
00
00
00
00
00
00
00
00
00
00
00
00
00
00
00
00
00
00
00
00
00
00
00
00
00
00
00
00
00
00
00
00
00
00
00
00
00
00
00
00
00
00
00
00
00
00
00
00
00
00
00
00
00
00
00
00
00
00
00
00
00
00
00
00
00
00
00
00
00
00
00
00
00
00
00
00
00
00
00
00
00
00
00
00
00
00
00
00
00
00
00
00
00
00
00
00
00
00
00
00
00
00
00
00
00
00
00
00
00
00
00
00
00
00
00
00
00
00
00
00
00
00
00
00
00
00
00
00
00
00
00
00
00
00
00
00
00
00
00
00
00
00
00
00
00
00
00
00
00
00
00
00
00
00
00
00
00
00
00
00
00
00
00
00
00
00
00
00
00
00
00
00
00
00
00
00
00
00
00
00
00
00
00
00
00
00
00
00
00
00
00
00
00
00
00
00
00
00
00
00
00
00
00
00
00
00
00
00
00
00
00
00
00
00
00
00
00
00
00
00
00
00
00
00
00
00
00
00
00
00
00
00
00
00
00
00
00
00
00
00
00
00
00
00
00
00
00
00
00
00
00
00
00
00
00
00
00
00
00
00
00
00
00
00
00
00
00
00
00
00
00
00
00
00
00
00
00
00
00
00
00
00
00
00
00
00
00
00
00
00
00
00
00
00
00
00
00
00
00
00
00
00
00
00
00
00
00
00
00
00
00
00
00
00
00
00
00
00
00
00
00
00
00
00
00
00
00
00
00
00
00
00
00
00
00
00
00
00
00
00
00
00
00
00
00
00
00
00
00
00
00
00
00
00
00
00
00
00
00
00
00
00
00
00
00
00
00
00
00
00
00
00
00
00
00
00
00
00
00
00
00
00
00
00
00
00
00
00
00
00
00
00
00
00
00
00
00
00
00
00
00
00
00
00
00
00
00
00
00
00
00
00
00
00
00
00
00
00
00
00
00
00
00
00
00
00
00
00
00
00
00
00
00
00
00
00
00
00
00
00
00
00
00
00
00
00
00
00
00
00
00
00
00
00
00
00
00
00
00
00
00
00
00
00
00
00
00
00
00
00
00
00
00
00
00
00
00
00
00
00
00
00
00
00
00
00
00
00
00
00
00
00
00
00
00
00
00
00
00
00
00
00
00
00
00
00
00
00
00
00
00
00
00
00
00
00
00
00
00
00
00
00
00
00
00
00
00
00
00
00
00
00
00
00
00
00
00
00
00
00
00
00
00
00
00
00
00
00
00
00
00
00
00
00
00
00
00
00
00
00
00
00
00
00
00
00
00
00
00
00
00
00
00
00
00
00
00
00
00
00
00
00
00
00
00
00
00
00
00
00
00
00
00
00
00
00
00
00
00
00
00
00
00
00
00
00
00
00
00
00
00
00
00
00
00
00
00
00
00
00
00
00
00
00
00
00
00
00
00
00
00
00
00
00
00
00
00
00
00
00
00
00
00
00
00
00
00
00
00
00
00
00
00
00
00
00
00
00
00
00
00
00
00
00
00
00
00
00
00
00
00
00
00
00
00
00
00
00
00
00
00
00
00
00
00
00
00
00
00
00
00
00
00
00
00
00
00
00
00
00
00
00
00
00
00
00
00
00
00
00
00
00
00
00
00
00
00
00
00
00
00
00
00
00
00
00
00
00
00
00
00
00
00
00
00
00
00
00
00
00
00
00
00
00
00
00
00
00
00
00
00
00
00
00
00
00
00
00
00
00
00
00
00
00
00
00
00
00
00
00
00
00
00
00
00
00
00
00
00
00
00
00
00
00
00
00
00
00
00
00
00
00
00
00
00
00
00
00
00
00
00
00
00
00
00
00
00
00
00
00
00
00
00
00
00
00
00
00
00
00
00
00
00
00
00
00
00
00
00
00
00
00
00
00
00
00
00
00
00
00
00
00
00
00
00
00
00
00
00
00
00
00
00
00
00
00
00
00
00
00
00
00
00
00
00
00
00
00
00
00
00
00
00
00
00
00
00
00
00
00
00
00
00
00
00
00
00
00
00
00
00
00
00
00
00
00
00
00
00
00
00
00
00
00
00
00
00
00
00
00
00
00
00
00
00
00
00
00
00
00
00
00
00
00
00
00
00
00
00
00
00
00
00
00
00
00
00
00
00
00
00
00
00
00
00
00
00
00
00
00
00
00
00
00
00
00
00
00
00
00
00
00
00
00
00
00
00
00
00
00
00
00
00
00
00
00
00
00
00
00
00
00
00
00
00
00
00
00
00
00
00
00
00
00
00
00
00
00
00
00
00
00
00
00
00
00
00
00
00
00
00
00
00
00
00
00
00
00
00
00
00
00
00
00
00
00
00
00
00
00
00
00
00
00
00
00
00
00
00
00
00
00
00
00
00
00
00
00
00
00
00
00
00
00
00
00
00
00
00
00
00
00
00
00
00
00
00
00
00
00
00
00
00
00
00
00
00
00
00
00
00
00
00
00
00
00
00
00
00
00
00
00
00
00
00
00
00
00
00
00
00
00
00
00
00
00
00
00
00
00
00
00
00
00
00
00
00
00
00
00
00
00
00
00
00
00
00
00
00
00
00
00
00
00
00
00
00
00
00
00
00
00
00
00
00
00
00
00
00
00
00
00
00
00
00
00
00
00
00
00
00
00
00
00
00
00
00
00
00
00
00
00
00
00
00
00
00
00
00
00
00
00
00
00
00
00
00
00
00
00
00
00
00
00
00
00
00
00
00
00
00
00
00
00
00
00
00
00
00
00
00
00
00
00
00
00
00
00
00
00
00
00
00
00
00
00
00
00
00
00
00
00
00
00
00
00
00
00
00
00
00
00
00
00
00
00
00
00
00
00
00
00
00
00
00
00
00
00
00
00
00
00
00
00
00
00
00
00
00
00
00
00
00
00
00
00
00
00
00
00
00
00
00
00
00
00
00
00
00
00
00
00
00
00
00
00
00
00
00
00
00
00
00
00
00
00
00
00
00
00
00
00
00
00
00
00
00
00
00
00
00
00
00
00
00
00
00
00
00
00
00
00
00
00
00
00
00
00
00
00
00
00
00
00
00
00
00
00
00
00
00
00
00
00
00
00
00
00
00
00
00
00
00
00
00
00
00
00
00
00
00
00
00
00
00
00
00
00
00
00
00
00
00
00
00
00
00
00
00
00
00
00
00
00
00
00
00
00
00
00
00
00
00
00
00
00
00
00
00
00
00
00
00
00
00
00
00
00
00
00
00
00
00
00
00
00
00
00
00
00
00
00
00
00
00
00
00
00
00
00
00
00
00
00
00
00
00
00
00
00
00
00
00
00
00
00
00
00
00
00
00
00
00
00
00
00
00
00
00
00
00
00
00
00
00
00
00
00
00
00
00
00
00
00
00
00
00
00
00
00
00
00
00
00
00
00
00
00
00
00
00
00
00
00
00
00
00
00
00
00
00
00
00
00
00
00
00
00
00
00
00
00
00
00
00
00
00
00
00
00
00
00
00
00
00
00
00
00
00
00
00
00
00
00
00
00
00
00
00
00
00
00
00
00
00
00
00
00
00
00
00
00
00
00
00
00
00
00
00
00
00
00
00
00
00
00
00
00
00
00
00
00
00
00
00
00
00
00
00
00
00
00
00
00
00
00
00
00
00
00
00
00
00
00
00
00
00
00
00
00
00
00
00
00
00
00
00
00
00
00
00
00
00
00
00
00
00
00
00
00
00
00
00
00
00
00
00
00
00
00
00
00
00
00
00
00
00
00
00
00
00
00
00
00
00
00
00
00
00
00
00
00
00
00
00
00
00
00
00
00
00
00
00
00
00
00
00
00
00
00
00
00
00
00
00
00
00
00
00
00
00
00
00
00
00
00
00
00
00
00
00
00
00
00
00
00
00
00
00
00
00
00
00
00
00
00
00
00
00
00
00
00
00
00
00
00
00
00
00
00
00
00
00
00
00
00
00
00
00
00
00
00
00
00
00
00
00
00
00
00
00
00
00
00
00
00
00
00
00
00
00
00
00
00
00
00
00
00
00
00
00
00
00
00
00
00
00
00
00
00
00
00
00
00
00
00
00
00
00
00
00
00
00
00
00
00
00
00
00
00
00
00
00
00
00
00
00
00
00
00
00
00
00
00
00
00
00
00
00
00
00
00
00
00
00
00
00
00
00
00
00
00
00
00
00
00
00
00
00
00
00
00
00
00
00
00
00
00
00
00
00
00
00
00
00
00
00
00
00
00
00
00
01
01
01
01
01
01
01
01
01
01
01
01
01
3F
E1
97
AC
2C
0D
A6
9E
D4
46
E2
36
15
0E
09
8A
3C
04
A3
42
05
F1
5F
08
0F
3D
8B
A2
05
04
43
5E
F0
11
D5
F2
06
E5
07
2A
89
6E
F3
D4
E4
07
2B
06
6F
88
45
2C
31
96
1D
16
A8
30
2D
1C
97
A9
17
41
15
11
1B
EA
10
14
EB
1A
55
22
39
38
23
51
5C
97
D4
7B
6D
11
63
C8
DB
F5
93
BE
0E
42
07
21
D9
CB
F6
77
02
45
B7
07
05
A8
02
A5
B8
D1
8C
ED
F6
0F
CA
F7
20
D8
44
B6
76
03
A4
B9
A9
03
EC
F7
D0
8D
2C
56
1D
6B
F9
C0
0B
1D
11
0D
0F
62
09
2D
C1
0A
6A
F8
63
08
0C
0E
22
52
1B
1B
15
23
43
CA
3D
A5
74
47
3B
A4
3E
66
9B
45
E5
18
10
35
FC
22
D8
CE
61
7A
83
26
9A
C2
3C
0F
55
51
C6
32
ED
82
19
A0
F3
45
42
45
64
FF
BA
E3
0C
17
AA
D2
4A
41
5C
7B
88
F8
49
CC
AA
47
2F
84
01
71
B6
38
1B
38
D4
7B
74
F7
E1
EC
0E
47
AE
4F
F7
7A
7D
C8
75
FF
3C
7A
C9
9A
7E
7E
9A
25
BA
BA
25
81
4C
A4
2D
D2
01
AF
4B
1A
D5
35
26
38
66
38
C7
F5
8D
36
01
52
59
04
F6
63
03
A1
4C
F6
2F
8B
8B
2F
CC
F9
F9
CC
58
D1
51
32
7D
32
B5
84
34
BA
8D
24
C8
2C
38
AC
92
BD
E3
01
05
F1
92
01
C3
9F
38
9E
6D
D2
42
B7
CD
74
7E
3B
A7
7B
B9
B6
56
2D
E7
0C
ED
C6
D9
38
B4
8F
FE
65
14
D6
01
35
82
CA
17
F0
01
A5
DB
C3
7B
38
2B
8D
39
8C
50
80
D4
A9
45
DE
01
68
22
77
DB
38
EB
EC
A7
07
E9
D2
BB
38
94
C8
01
F9
07
03
7E
B8
C2
B4
29
96
C4
8B
BE
E8
38
90
6F
06
80
B4
07
07
B4
1C
09
3D
0F
85
E7
D5
CE
D4
D4
CE
73
AB
F2
97
96
0B
3C
DF
F7
37
E0
04
F1
3B
10
0E
CA
0A
3D
31
15
F8
B1
09
58
32
1B
32
29
23
BB
7B
52
C8
EF
29
F4
64
C5
8E
71
B3
07
8D
F6
B3
71
8E
C5
64
F4
29
EF
02
03
DB
8E
53
D3
69
C9
77
F4
05
34
F4
C9
38
8E
C2
23
D3
62
69
92
F4
5A
53
4E
8E
0B
8B
F2
CB
A5
79
6A
06
05
02
8C
D0
03
09
8D
03
45
F6
B9
F7
51
02
0F
89
05
F1
07
0D
76
72
90
E9
9D
6A
71
5E
81
1E
77
46
FC
D6
06
E7
2A
EA
36
6F
29
3D
8C
4A
A5
D4
47
CA
11
4E
45
C3
73
3F
3E
28
C4
23
D1
1D
E5
D9
A0
66
D0
B3
33
EB
9C
15
79
9A
8F
3E
44
51
65
D8
5A
45
47
EE
F1
AA
89
0C
C5
B3
C2
8E
5C
D9
3B
D8
84
9B
F5
C0
74
0B
6C
D9
0F
4B
0D
E0
57
A2
3B
79
A0
80
ED
DA
69
C5
32
BA
A7
AB
45
F0
78
4A
AC
0C
11
EC
F8
31
C9
D7
47
43
25
01
C5
FA
F4
A8
AF
7B
66
10
8F
77
46
79
C6
51
77
C4
6C
FC
C6
82
83
45
85
86
B3
9A
32
AE
0C
80
CC
60
F1
A7
5C
52
89
47
3F
CC
EC
A9
BB
84
9E
D0
B6
EF
1B
38
80
32
44
C2
84
4C
C0
D0
42
53
5E
EC
2D
7A
E5
3E
06
40
47
FA
2D
23
05
3C
A7
13
43
F9
EC
0C
C3
29
EB
8E
A9
FE
A1
DB
64
0B
47
BA
62
D6
AA
EC
F3
65
C0
7B
3F
BA
27
0C
F9
32
A7
6A
C8
F4
1B
D3
52
22
57
39
0D
EB
26
5B
FF
52
D2
F5
FE
C8
C8
52
22
07
F6
50
03
A2
BF
5C
9D
35
CF
82
FD
E3
63
A7
AB
A5
B7
6A
69
E8
97
01
97
38
04
A4
39
02
50
80
42
61
7E
F6
C2
B4
07
B4
3D
85
BD
03
B8
A3
CB
DD
34
73
1B
28
C2
51
D0
45
74
03
57
9A
91
CA
53
05
C2
B7
13
24
10
66
36
F4
5A
ED
B4
2E
72
15
81
C9
08
BE
89
78
6B
D8
03
1E
6D
BE
7E
3E
F7
3E
2F
53
9C
A5
AC
41
A0
8C
26
D5
F0
5D
06
0F
0A
DA
48
40
43
3F
CD
AE
FF
EE
1E
65
39
7F
70
33
AA
D9
99
8F
1F
B6
68
75
3F
F9
F8
8E
21
0A
0E
BD
43
C7
A4
67
6E
82
C3
5E
A3
AE
F5
9E
06
B1
C3
D5
2A
6A
10
7B
B7
93
FC
14
70
C4
63
60
81
99
F8
A6
39
2A
E5
AE
1D
BB
FB
01
18
F9
DA
6E
06
C7
04
24
19
F6
BD
CB
A2
F1
DB
52
D5
91
CA
6D
DB
06
79
8F
5D
AB
08
14
01
9C
B7
48
76
EE
72
8F
E3
E0
D7
EE
B0
35
06
F9
7A
C0
5E
D5
F3
59
9C
BD
78
57
6E
71
43
05
F6
1C
FD
86
0C
1E
A9
A2
0F
64
04
D5
89
AC
DA
62
D6
B4
06
7C
6E
97
C8
8B
D3
BD
C3
43
A5
A1
85
9B
0F
97
74
78
1A
18
73
18
D2
BD
C2
FD
16
20
14
11
11
5C
70
2E
22
3C
66
C7
D9
55
07
41
83
A9
2B
14
F9
BE
D3
56
30
78
D8
F1
42
1D
47
58
94
84
2C
4E
0B
40
39
E6
22
55
80
5C
96
CC
FB
B7
26
E5
BD
68
81
B5
89
AF
11
F8
DE
43
54
24
08
6C
76
99
75
0D
46
76
2D
1F
E5
BF
A4
83
EE
C3
AD
B3
E6
0A
C0
EE
7C
C5
9D
9C
BB
25
F0
6E
99
5D
64
29
B7
24
BA
7B
45
1E
CF
A3
F1
48
79
FF
26
20
07
05
96
5C
D0
AE
6D
28
41
24
0F
C0
6D
98
A0
CB
DA
2D
C3
A9
80
7C
EA
01
5D
2B
F6
2C
1E
F0
5F
AB
BD
3C
5D
1A
EE
07
E5
7E
45
AA
50
3C
6B
F9
CE
A8
71
19
F0
24
D7
5C
DB
5D
C0
AA
A9
C3
F7
B0
C0
38
AD
88
03
86
6D
47
FD
17
77
AC
4C
6A
BD
5D
CC
F5
0F
0C
82
F1
F0
5D
C0
F5
E2
9C
62
C3
7C
AA
6A
9B
31
F8
85
DB
75
5A
A7
A9
69
E7
01
A2
F1
FB
4A
1A
73
8E
92
0B
22
C4
01
2E
4B
D2
C8
04
AF
FA
5B
B0
ED
1A
61
56
A9
C7
D3
5C
D9
06
94
6F
1A
84
A3
35
94
7F
DF
E6
A6
D2
39
E0
D1
95
F3
96
44
D8
7F
83
E0
78
1C
ED
43
E0
9F
47
D0
7A
EF
EB
9A
DC
77
14
49
B7
93
52
50
CE
42
58
8B
11
5B
54
03
B7
5D
35
74
AB
7B
E1
03
70
4B
A4
07
8C
32
B0
A8
7F
E3
E4
D7
FD
9D
FE
74
93
6A
7B
77
29
AD
70
B7
97
85
02
58
F0
FD
49
48
86
C8
05
38
48
11
F6
8A
35
94
1B
D1
DA
B7
AC
8C
14
52
9B
75
7B
27
49
02
8D
85
46
58
9B
FA
BE
5F
5A
2B
45
26
71
D8
BC
E6
E6
F1
F7
0F
0E
E7
2E
48
95
22
CF
1D
E0
75
44
09
98
25
DE
0C
0E
D3
F2
CD
56
07
A3
61
3D
AC
FF
12
9B
0A
84
39
2E
B0
95
15
5C
96
7C
80
C1
D1
83
D4
1D
EA
BC
2D
4B
09
A1
90
89
B6
E3
50
BD
D0
B3
AD
25
B9
5D
93
F4
16
93
AB
1D
B2
7D
B7
86
56
42
54
93
FD
8A
45
67
3B
BA
34
99
3E
1E
52
0A
AB
0D
33
A9
A9
DA
D4
5D
F8
42
F6
9B
CD
9C
B7
8B
85
8B
6B
B7
0B
1A
39
D7
F0
69
3C
96
69
B9
DE
F8
22
13
F2
22
76
2E
96
09
E6
EC
68
E4
93
8C
0E
56
45
1C
95
16
D3
1D
B1
81
2C
D2
D0
DD
09
E6
94
23
80
99
D1
26
5F
9D
0C
95
31
5C
96
18
D1
59
D5
C3
88
81
40
CD
86
85
3E
B3
1B
E2
9B
FD
49
AD
DA
21
25
52
93
B7
49
07
20
62
73
17
AB
73
7C
B3
94
22
D3
D9
FF
3C
EA
94
BC
DE
B5
39
15
A8
95
77
5C
96
72
BF
E6
84
E9
69
4D
E6
34
12
80
4F
D1
BB
B8
DE
95
E7
DE
1D
C4
5B
D3
35
FE
1B
E0
51
44
72
DD
DD
37
FB
31
91
B4
C2
28
56
2E
02
BC
5B
84
B1
8A
3C
E6
70
E4
80
F7
D1
4B
3D
B9
69
FF
08
94
A2
E6
C9
39
16
33
95
8F
5C
96
F2
0E
0E
67
C9
9F
84
1C
7F
4F
1D
61
02
AC
E0
AD
C2
F3
0C
7A
10
CB
C7
2A
6A
B8
88
BF
E4
62
3A
6E
63
6D
62
4F
2A
BB
81
45
37
2A
6B
E1
21
53
A7
08
0D
A7
8E
53
EB
30
F5
C5
24
38
5F
8C
46
71
70
D4
DF
4E
99
59
8A
D5
53
2F
DC
CB
C4
CA
FA
3F
54
1F
BF
E9
54
82
42
74
10
28
01
60

